clingo version 5.3.0
Reading from ...nchmarks/assign/currentInst/x55_y32.lp ...
Solving...
*** Info : (clingo): INTERRUPTED by signal!
Answer: 1
assign(robot(2),shelf(1)). assign(robot(1),shelf(2)). assign(robot(55),shelf(3)). assign(robot(3),shelf(4)). assign(robot(4),shelf(5)). assign(robot(6),shelf(6)). assign(robot(8),shelf(7)). assign(robot(7),shelf(8)). assign(robot(9),shelf(9)). assign(robot(5),shelf(10)). assign(robot(10),shelf(11)). assign(robot(11),shelf(12)). assign(robot(586),shelf(13)). assign(robot(585),shelf(14)). assign(robot(583),shelf(15)). assign(robot(579),shelf(16)). assign(robot(578),shelf(17)). assign(robot(576),shelf(18)). assign(robot(574),shelf(19)). assign(robot(573),shelf(20)). assign(robot(572),shelf(21)). assign(robot(571),shelf(22)). assign(robot(570),shelf(23)). assign(robot(569),shelf(24)). assign(robot(568),shelf(25)). assign(robot(567),shelf(26)). assign(robot(566),shelf(27)). assign(robot(565),shelf(28)). assign(robot(564),shelf(29)). assign(robot(563),shelf(30)). assign(robot(562),shelf(31)). assign(robot(561),shelf(32)). assign(robot(560),shelf(33)). assign(robot(559),shelf(34)). assign(robot(558),shelf(35)). assign(robot(557),shelf(36)). assign(robot(555),shelf(37)). assign(robot(554),shelf(38)). assign(robot(609),shelf(39)). assign(robot(553),shelf(40)). assign(robot(552),shelf(41)). assign(robot(551),shelf(42)). assign(robot(550),shelf(43)). assign(robot(548),shelf(44)). assign(robot(547),shelf(45)). assign(robot(546),shelf(46)). assign(robot(545),shelf(47)). assign(robot(544),shelf(48)). assign(robot(543),shelf(49)). assign(robot(542),shelf(50)). assign(robot(541),shelf(51)). assign(robot(540),shelf(52)). assign(robot(539),shelf(53)). assign(robot(538),shelf(54)). assign(robot(537),shelf(55)). assign(robot(536),shelf(56)). assign(robot(535),shelf(57)). assign(robot(534),shelf(58)). assign(robot(533),shelf(59)). assign(robot(532),shelf(60)). assign(robot(531),shelf(61)). assign(robot(530),shelf(62)). assign(robot(529),shelf(63)). assign(robot(528),shelf(64)). assign(robot(527),shelf(65)). assign(robot(526),shelf(66)). assign(robot(525),shelf(67)). assign(robot(524),shelf(68)). assign(robot(523),shelf(69)). assign(robot(522),shelf(70)). assign(robot(521),shelf(71)). assign(robot(520),shelf(72)). assign(robot(519),shelf(73)). assign(robot(518),shelf(74)). assign(robot(517),shelf(75)). assign(robot(516),shelf(76)). assign(robot(306),shelf(77)). assign(robot(610),shelf(78)). assign(robot(605),shelf(79)). assign(robot(515),shelf(80)). assign(robot(514),shelf(81)). assign(robot(513),shelf(82)). assign(robot(512),shelf(83)). assign(robot(511),shelf(84)). assign(robot(510),shelf(85)). assign(robot(509),shelf(86)). assign(robot(508),shelf(87)). assign(robot(507),shelf(88)). assign(robot(506),shelf(89)). assign(robot(505),shelf(90)). assign(robot(504),shelf(91)). assign(robot(503),shelf(92)). assign(robot(502),shelf(93)). assign(robot(501),shelf(94)). assign(robot(500),shelf(95)). assign(robot(499),shelf(96)). assign(robot(498),shelf(97)). assign(robot(497),shelf(98)). assign(robot(496),shelf(99)). assign(robot(495),shelf(100)). assign(robot(494),shelf(101)). assign(robot(493),shelf(102)). assign(robot(492),shelf(103)). assign(robot(491),shelf(104)). assign(robot(490),shelf(105)). assign(robot(489),shelf(106)). assign(robot(488),shelf(107)). assign(robot(487),shelf(108)). assign(robot(486),shelf(109)). assign(robot(485),shelf(110)). assign(robot(484),shelf(111)). assign(robot(483),shelf(112)). assign(robot(482),shelf(113)). assign(robot(481),shelf(114)). assign(robot(480),shelf(115)). assign(robot(479),shelf(116)). assign(robot(478),shelf(117)). assign(robot(477),shelf(118)). assign(robot(476),shelf(119)). assign(robot(475),shelf(120)). assign(robot(474),shelf(121)). assign(robot(473),shelf(122)). assign(robot(472),shelf(123)). assign(robot(471),shelf(124)). assign(robot(470),shelf(125)). assign(robot(469),shelf(126)). assign(robot(468),shelf(127)). assign(robot(467),shelf(128)). assign(robot(466),shelf(129)). assign(robot(465),shelf(130)). assign(robot(464),shelf(131)). assign(robot(463),shelf(132)). assign(robot(462),shelf(133)). assign(robot(461),shelf(134)). assign(robot(460),shelf(135)). assign(robot(459),shelf(136)). assign(robot(458),shelf(137)). assign(robot(457),shelf(138)). assign(robot(456),shelf(139)). assign(robot(455),shelf(140)). assign(robot(454),shelf(141)). assign(robot(453),shelf(142)). assign(robot(452),shelf(143)). assign(robot(451),shelf(144)). assign(robot(450),shelf(145)). assign(robot(449),shelf(146)). assign(robot(448),shelf(147)). assign(robot(447),shelf(148)). assign(robot(446),shelf(149)). assign(robot(445),shelf(150)). assign(robot(444),shelf(151)). assign(robot(443),shelf(152)). assign(robot(442),shelf(153)). assign(robot(603),shelf(154)). assign(robot(584),shelf(155)). assign(robot(600),shelf(156)). assign(robot(590),shelf(157)). assign(robot(606),shelf(158)). assign(robot(593),shelf(159)). assign(robot(441),shelf(160)). assign(robot(440),shelf(161)). assign(robot(439),shelf(162)). assign(robot(438),shelf(163)). assign(robot(437),shelf(164)). assign(robot(436),shelf(165)). assign(robot(435),shelf(166)). assign(robot(434),shelf(167)). assign(robot(433),shelf(168)). assign(robot(432),shelf(169)). assign(robot(431),shelf(170)). assign(robot(430),shelf(171)). assign(robot(429),shelf(172)). assign(robot(428),shelf(173)). assign(robot(427),shelf(174)). assign(robot(426),shelf(175)). assign(robot(425),shelf(176)). assign(robot(424),shelf(177)). assign(robot(423),shelf(178)). assign(robot(422),shelf(179)). assign(robot(421),shelf(180)). assign(robot(420),shelf(181)). assign(robot(419),shelf(182)). assign(robot(418),shelf(183)). assign(robot(417),shelf(184)). assign(robot(416),shelf(185)). assign(robot(415),shelf(186)). assign(robot(414),shelf(187)). assign(robot(413),shelf(188)). assign(robot(412),shelf(189)). assign(robot(411),shelf(190)). assign(robot(410),shelf(191)). assign(robot(409),shelf(192)). assign(robot(408),shelf(193)). assign(robot(407),shelf(194)). assign(robot(406),shelf(195)). assign(robot(405),shelf(196)). assign(robot(404),shelf(197)). assign(robot(403),shelf(198)). assign(robot(402),shelf(199)). assign(robot(401),shelf(200)). assign(robot(400),shelf(201)). assign(robot(399),shelf(202)). assign(robot(398),shelf(203)). assign(robot(397),shelf(204)). assign(robot(396),shelf(205)). assign(robot(395),shelf(206)). assign(robot(394),shelf(207)). assign(robot(393),shelf(208)). assign(robot(392),shelf(209)). assign(robot(391),shelf(210)). assign(robot(390),shelf(211)). assign(robot(389),shelf(212)). assign(robot(388),shelf(213)). assign(robot(387),shelf(214)). assign(robot(386),shelf(215)). assign(robot(385),shelf(216)). assign(robot(384),shelf(217)). assign(robot(383),shelf(218)). assign(robot(382),shelf(219)). assign(robot(381),shelf(220)). assign(robot(380),shelf(221)). assign(robot(379),shelf(222)). assign(robot(378),shelf(223)). assign(robot(377),shelf(224)). assign(robot(376),shelf(225)). assign(robot(375),shelf(226)). assign(robot(374),shelf(227)). assign(robot(373),shelf(228)). assign(robot(372),shelf(229)). assign(robot(371),shelf(230)). assign(robot(370),shelf(231)). assign(robot(369),shelf(232)). assign(robot(368),shelf(233)). assign(robot(367),shelf(234)). assign(robot(366),shelf(235)). assign(robot(365),shelf(236)). assign(robot(364),shelf(237)). assign(robot(363),shelf(238)). assign(robot(362),shelf(239)). assign(robot(361),shelf(240)). assign(robot(360),shelf(241)). assign(robot(359),shelf(242)). assign(robot(358),shelf(243)). assign(robot(357),shelf(244)). assign(robot(356),shelf(245)). assign(robot(355),shelf(246)). assign(robot(354),shelf(247)). assign(robot(353),shelf(248)). assign(robot(352),shelf(249)). assign(robot(351),shelf(250)). assign(robot(350),shelf(251)). assign(robot(349),shelf(252)). assign(robot(348),shelf(253)). assign(robot(347),shelf(254)). assign(robot(346),shelf(255)). assign(robot(345),shelf(256)). assign(robot(344),shelf(257)). assign(robot(343),shelf(258)). assign(robot(342),shelf(259)). assign(robot(341),shelf(260)). assign(robot(340),shelf(261)). assign(robot(339),shelf(262)). assign(robot(338),shelf(263)). assign(robot(337),shelf(264)). assign(robot(336),shelf(265)). assign(robot(335),shelf(266)). assign(robot(334),shelf(267)). assign(robot(333),shelf(268)). assign(robot(332),shelf(269)). assign(robot(331),shelf(270)). assign(robot(330),shelf(271)). assign(robot(329),shelf(272)). assign(robot(328),shelf(273)). assign(robot(327),shelf(274)). assign(robot(326),shelf(275)). assign(robot(325),shelf(276)). assign(robot(324),shelf(277)). assign(robot(323),shelf(278)). assign(robot(322),shelf(279)). assign(robot(321),shelf(280)). assign(robot(320),shelf(281)). assign(robot(319),shelf(282)). assign(robot(318),shelf(283)). assign(robot(317),shelf(284)). assign(robot(316),shelf(285)). assign(robot(315),shelf(286)). assign(robot(314),shelf(287)). assign(robot(313),shelf(288)). assign(robot(312),shelf(289)). assign(robot(311),shelf(290)). assign(robot(310),shelf(291)). assign(robot(309),shelf(292)). assign(robot(308),shelf(293)). assign(robot(307),shelf(294)). assign(robot(305),shelf(295)). assign(robot(304),shelf(296)). assign(robot(303),shelf(297)). assign(robot(302),shelf(298)). assign(robot(301),shelf(299)). assign(robot(300),shelf(300)). assign(robot(299),shelf(301)). assign(robot(298),shelf(302)). assign(robot(297),shelf(303)). assign(robot(296),shelf(304)). assign(robot(295),shelf(305)). assign(robot(612),shelf(306)). assign(robot(607),shelf(307)). assign(robot(595),shelf(308)). assign(robot(597),shelf(309)). assign(robot(556),shelf(310)). assign(robot(599),shelf(311)). assign(robot(602),shelf(312)). assign(robot(587),shelf(313)). assign(robot(598),shelf(314)). assign(robot(596),shelf(315)). assign(robot(592),shelf(316)). assign(robot(549),shelf(317)). assign(robot(582),shelf(318)). assign(robot(294),shelf(319)). assign(robot(293),shelf(320)). assign(robot(292),shelf(321)). assign(robot(291),shelf(322)). assign(robot(290),shelf(323)). assign(robot(289),shelf(324)). assign(robot(288),shelf(325)). assign(robot(287),shelf(326)). assign(robot(286),shelf(327)). assign(robot(285),shelf(328)). assign(robot(284),shelf(329)). assign(robot(283),shelf(330)). assign(robot(282),shelf(331)). assign(robot(281),shelf(332)). assign(robot(280),shelf(333)). assign(robot(279),shelf(334)). assign(robot(278),shelf(335)). assign(robot(277),shelf(336)). assign(robot(276),shelf(337)). assign(robot(275),shelf(338)). assign(robot(274),shelf(339)). assign(robot(273),shelf(340)). assign(robot(272),shelf(341)). assign(robot(271),shelf(342)). assign(robot(270),shelf(343)). assign(robot(269),shelf(344)). assign(robot(268),shelf(345)). assign(robot(267),shelf(346)). assign(robot(266),shelf(347)). assign(robot(265),shelf(348)). assign(robot(264),shelf(349)). assign(robot(263),shelf(350)). assign(robot(262),shelf(351)). assign(robot(261),shelf(352)). assign(robot(260),shelf(353)). assign(robot(259),shelf(354)). assign(robot(258),shelf(355)). assign(robot(257),shelf(356)). assign(robot(256),shelf(357)). assign(robot(255),shelf(358)). assign(robot(254),shelf(359)). assign(robot(253),shelf(360)). assign(robot(252),shelf(361)). assign(robot(251),shelf(362)). assign(robot(250),shelf(363)). assign(robot(249),shelf(364)). assign(robot(248),shelf(365)). assign(robot(247),shelf(366)). assign(robot(246),shelf(367)). assign(robot(245),shelf(368)). assign(robot(244),shelf(369)). assign(robot(243),shelf(370)). assign(robot(242),shelf(371)). assign(robot(241),shelf(372)). assign(robot(240),shelf(373)). assign(robot(239),shelf(374)). assign(robot(238),shelf(375)). assign(robot(237),shelf(376)). assign(robot(236),shelf(377)). assign(robot(235),shelf(378)). assign(robot(234),shelf(379)). assign(robot(233),shelf(380)). assign(robot(232),shelf(381)). assign(robot(231),shelf(382)). assign(robot(230),shelf(383)). assign(robot(229),shelf(384)). assign(robot(228),shelf(385)). assign(robot(227),shelf(386)). assign(robot(226),shelf(387)). assign(robot(225),shelf(388)). assign(robot(224),shelf(389)). assign(robot(223),shelf(390)). assign(robot(222),shelf(391)). assign(robot(221),shelf(392)). assign(robot(220),shelf(393)). assign(robot(219),shelf(394)). assign(robot(218),shelf(395)). assign(robot(217),shelf(396)). assign(robot(216),shelf(397)). assign(robot(215),shelf(398)). assign(robot(214),shelf(399)). assign(robot(213),shelf(400)). assign(robot(212),shelf(401)). assign(robot(211),shelf(402)). assign(robot(210),shelf(403)). assign(robot(209),shelf(404)). assign(robot(208),shelf(405)). assign(robot(207),shelf(406)). assign(robot(206),shelf(407)). assign(robot(205),shelf(408)). assign(robot(204),shelf(409)). assign(robot(203),shelf(410)). assign(robot(202),shelf(411)). assign(robot(201),shelf(412)). assign(robot(200),shelf(413)). assign(robot(199),shelf(414)). assign(robot(198),shelf(415)). assign(robot(197),shelf(416)). assign(robot(196),shelf(417)). assign(robot(195),shelf(418)). assign(robot(194),shelf(419)). assign(robot(193),shelf(420)). assign(robot(192),shelf(421)). assign(robot(191),shelf(422)). assign(robot(190),shelf(423)). assign(robot(189),shelf(424)). assign(robot(188),shelf(425)). assign(robot(187),shelf(426)). assign(robot(186),shelf(427)). assign(robot(185),shelf(428)). assign(robot(184),shelf(429)). assign(robot(183),shelf(430)). assign(robot(182),shelf(431)). assign(robot(181),shelf(432)). assign(robot(180),shelf(433)). assign(robot(179),shelf(434)). assign(robot(178),shelf(435)). assign(robot(177),shelf(436)). assign(robot(176),shelf(437)). assign(robot(175),shelf(438)). assign(robot(174),shelf(439)). assign(robot(173),shelf(440)). assign(robot(172),shelf(441)). assign(robot(171),shelf(442)). assign(robot(170),shelf(443)). assign(robot(169),shelf(444)). assign(robot(168),shelf(445)). assign(robot(167),shelf(446)). assign(robot(166),shelf(447)). assign(robot(165),shelf(448)). assign(robot(164),shelf(449)). assign(robot(163),shelf(450)). assign(robot(162),shelf(451)). assign(robot(161),shelf(452)). assign(robot(160),shelf(453)). assign(robot(159),shelf(454)). assign(robot(158),shelf(455)). assign(robot(157),shelf(456)). assign(robot(156),shelf(457)). assign(robot(155),shelf(458)). assign(robot(154),shelf(459)). assign(robot(153),shelf(460)). assign(robot(152),shelf(461)). assign(robot(151),shelf(462)). assign(robot(150),shelf(463)). assign(robot(149),shelf(464)). assign(robot(148),shelf(465)). assign(robot(147),shelf(466)). assign(robot(146),shelf(467)). assign(robot(145),shelf(468)). assign(robot(144),shelf(469)). assign(robot(143),shelf(470)). assign(robot(142),shelf(471)). assign(robot(141),shelf(472)). assign(robot(140),shelf(473)). assign(robot(139),shelf(474)). assign(robot(138),shelf(475)). assign(robot(137),shelf(476)). assign(robot(136),shelf(477)). assign(robot(135),shelf(478)). assign(robot(134),shelf(479)). assign(robot(133),shelf(480)). assign(robot(132),shelf(481)). assign(robot(131),shelf(482)). assign(robot(130),shelf(483)). assign(robot(129),shelf(484)). assign(robot(128),shelf(485)). assign(robot(127),shelf(486)). assign(robot(126),shelf(487)). assign(robot(125),shelf(488)). assign(robot(124),shelf(489)). assign(robot(123),shelf(490)). assign(robot(122),shelf(491)). assign(robot(121),shelf(492)). assign(robot(120),shelf(493)). assign(robot(119),shelf(494)). assign(robot(118),shelf(495)). assign(robot(117),shelf(496)). assign(robot(116),shelf(497)). assign(robot(115),shelf(498)). assign(robot(114),shelf(499)). assign(robot(113),shelf(500)). assign(robot(112),shelf(501)). assign(robot(111),shelf(502)). assign(robot(110),shelf(503)). assign(robot(109),shelf(504)). assign(robot(108),shelf(505)). assign(robot(107),shelf(506)). assign(robot(106),shelf(507)). assign(robot(105),shelf(508)). assign(robot(104),shelf(509)). assign(robot(103),shelf(510)). assign(robot(102),shelf(511)). assign(robot(101),shelf(512)). assign(robot(100),shelf(513)). assign(robot(99),shelf(514)). assign(robot(98),shelf(515)). assign(robot(97),shelf(516)). assign(robot(96),shelf(517)). assign(robot(95),shelf(518)). assign(robot(94),shelf(519)). assign(robot(93),shelf(520)). assign(robot(92),shelf(521)). assign(robot(91),shelf(522)). assign(robot(90),shelf(523)). assign(robot(89),shelf(524)). assign(robot(88),shelf(525)). assign(robot(87),shelf(526)). assign(robot(86),shelf(527)). assign(robot(85),shelf(528)). assign(robot(84),shelf(529)). assign(robot(83),shelf(530)). assign(robot(82),shelf(531)). assign(robot(81),shelf(532)). assign(robot(80),shelf(533)). assign(robot(79),shelf(534)). assign(robot(78),shelf(535)). assign(robot(77),shelf(536)). assign(robot(76),shelf(537)). assign(robot(75),shelf(538)). assign(robot(74),shelf(539)). assign(robot(73),shelf(540)). assign(robot(72),shelf(541)). assign(robot(71),shelf(542)). assign(robot(70),shelf(543)). assign(robot(69),shelf(544)). assign(robot(68),shelf(545)). assign(robot(67),shelf(546)). assign(robot(66),shelf(547)). assign(robot(65),shelf(548)). assign(robot(64),shelf(549)). assign(robot(63),shelf(550)). assign(robot(62),shelf(551)). assign(robot(61),shelf(552)). assign(robot(60),shelf(553)). assign(robot(59),shelf(554)). assign(robot(58),shelf(555)). assign(robot(57),shelf(556)). assign(robot(56),shelf(557)). assign(robot(54),shelf(558)). assign(robot(53),shelf(559)). assign(robot(52),shelf(560)). assign(robot(51),shelf(561)). assign(robot(50),shelf(562)). assign(robot(49),shelf(563)). assign(robot(48),shelf(564)). assign(robot(47),shelf(565)). assign(robot(46),shelf(566)). assign(robot(45),shelf(567)). assign(robot(44),shelf(568)). assign(robot(43),shelf(569)). assign(robot(42),shelf(570)). assign(robot(41),shelf(571)). assign(robot(40),shelf(572)). assign(robot(39),shelf(573)). assign(robot(38),shelf(574)). assign(robot(37),shelf(575)). assign(robot(36),shelf(576)). assign(robot(35),shelf(577)). assign(robot(34),shelf(578)). assign(robot(33),shelf(579)). assign(robot(32),shelf(580)). assign(robot(31),shelf(581)). assign(robot(30),shelf(582)). assign(robot(29),shelf(583)). assign(robot(28),shelf(584)). assign(robot(27),shelf(585)). assign(robot(26),shelf(586)). assign(robot(25),shelf(587)). assign(robot(24),shelf(588)). assign(robot(23),shelf(589)). assign(robot(22),shelf(590)). assign(robot(21),shelf(591)). assign(robot(20),shelf(592)). assign(robot(19),shelf(593)). assign(robot(18),shelf(594)). assign(robot(17),shelf(595)). assign(robot(16),shelf(596)). assign(robot(15),shelf(597)). assign(robot(14),shelf(598)). assign(robot(13),shelf(599)). assign(robot(12),shelf(600)). assign(robot(604),shelf(601)). assign(robot(588),shelf(602)). assign(robot(589),shelf(603)). assign(robot(601),shelf(604)). assign(robot(577),shelf(605)). assign(robot(611),shelf(606)). assign(robot(594),shelf(607)). assign(robot(608),shelf(608)). assign(robot(580),shelf(609)). assign(robot(581),shelf(610)). assign(robot(575),shelf(611)). assign(robot(591),shelf(612)).
SATISFIABLE

INTERRUPTED  : 1
Models       : 1+
  Optimum    : unknown
Optimization : 9750
Calls        : 1
Time         : 59.971s (Solving: 54.55s 1st Model: 0.07s Unsat: 0.00s)
CPU Time     : 59.968s

Choices      : 359873  
Conflicts    : 57733    (Analyzed: 57733)
Restarts     : 188      (Average: 307.09 Last: 56690)
Model-Level  : 183984.0
Problems     : 1        (Average Length: 0.00 Splits: 0)
Lemmas       : 57733    (Deleted: 51311)
  Binary     : 0        (Ratio:   0.00%)
  Ternary    : 0        (Ratio:   0.00%)
  Conflict   : 57733    (Average Length:  751.0 Ratio: 100.00%) 
  Loop       : 0        (Average Length:    0.0 Ratio:   0.00%) 
  Other      : 0        (Average Length:    0.0 Ratio:   0.00%) 
Backjumps    : 57733    (Average:  1.06 Max:  42 Sum:  60963)
  Executed   : 57733    (Average:  1.06 Max:  42 Sum:  60963 Ratio: 100.00%)
  Bounded    : 0        (Average:  0.00 Max:   0 Sum:      0 Ratio:   0.00%)

Rules        : 1171571  (Original: 1142303)
  Choice     : 374544  
  Minimize   : 1       
Atoms        : 781162   (Original: 766534 Auxiliary: 14628)
Bodies       : 390397   (Original: 375769)
  Count      : 1212     (Original: 1224)
Equivalences : 374544   (Atom=Atom: 0 Body=Body: 0 Other: 374544)
Tight        : Yes
Variables    : 389784   (Eliminated:    0 Frozen: 374544)
Constraints  : 45732    (Binary:  80.0% Ternary:  16.0% Other:   4.0%)

